33 29 81 50 
62 11 90 10 
65 71 78 34 35 77 
72 75 54 
5 61 85 97 
92 42 15 41 74 
63 64 49 48 
59 99 94 96 
2 87 57 58 
82 18 6 
39 23 67 55 24 80 
45 83 84 60 89 
40 53 26 
27 69 51 9 66 1 
36 47 19 8 46 17 93 
21 73 22 56 4 25 
28 12 76 79 3 68 
52 88 7 
95 98 16 86 37 91 100 
31 30 20 32 70 
14 44 38 43 13 
